
Gurobi 10.0.1 (win64) logging started Sun May 21 04:30:02 2023

Set parameter LogFile to value "logFiles/N-1L-D/N-1L-14U-27F-23V-240D-basic-heuristic.log"
Gurobi Optimizer version 10.0.1 build v10.0.1rc0 (win64)

CPU model: Intel(R) Core(TM) i7-10700 CPU @ 2.90GHz, instruction set [SSE2|AVX|AVX2]
Thread count: 8 physical cores, 16 logical processors, using up to 16 threads

Optimize a model with 193111 rows, 2346180 columns and 17392814 nonzeros
Model fingerprint: 0x625b5721
Variable types: 3505 continuous, 2342675 integer (2342675 binary)
Coefficient statistics:
  Matrix range     [1e+00, 2e+05]
  Objective range  [4e+01, 3e+07]
  Bounds range     [1e+00, 1e+00]
  RHS range        [1e+00, 5e+06]
Presolve removed 104048 rows and 39612 columns (presolve time = 5s) ...
Presolve removed 110307 rows and 39612 columns (presolve time = 10s) ...
Presolve removed 110505 rows and 39612 columns (presolve time = 15s) ...
Presolve removed 110505 rows and 39612 columns (presolve time = 20s) ...
Presolve removed 110505 rows and 39612 columns (presolve time = 25s) ...
Presolve removed 110505 rows and 39804 columns (presolve time = 30s) ...
Presolve removed 110348 rows and 39640 columns
Presolve time: 31.07s
Presolved: 82763 rows, 2306540 columns, 13356784 nonzeros
Variable types: 3647 continuous, 2302893 integer (2302893 binary)
Deterministic concurrent LP optimizer: primal simplex, dual simplex, and barrier
Showing barrier log only...

Root barrier log...

Elapsed ordering time = 5s
Ordering time: 5.92s

Barrier statistics:
 AA' NZ     : 6.217e+06
 Factor NZ  : 3.483e+07 (roughly 1.3 GB of memory)
 Factor Ops : 1.300e+11 (roughly 1 second per iteration)
 Threads    : 5

                  Objective                Residual
Iter       Primal          Dual         Primal    Dual     Compl     Time
   0  -1.12503889e+17  2.10361792e+13  1.09e+10 5.62e+05  1.86e+11    59s
   1  -3.10249661e+16  2.15280571e+13  3.00e+09 5.05e+05  5.16e+10    62s
   2  -6.39689377e+15  1.59794154e+13  6.24e+08 6.14e+04  1.08e+10    65s
   3  -4.26040201e+14  1.03410159e+13  4.16e+07 1.28e+03  7.23e+08    70s
   4  -5.75965449e+13  4.74658973e+12  5.62e+06 4.05e+00  1.02e+08    75s
   5  -7.29476945e+12  2.67674988e+12  7.10e+05 1.63e-09  1.40e+07    80s
   6  -3.49492787e+12  2.50381557e+12  3.40e+05 8.59e+00  6.95e+06    83s
   7  -2.00734532e+12  2.01571646e+12  1.95e+05 1.16e-09  4.01e+06    86s
   8  -8.67444187e+11  1.66631247e+12  8.46e+04 1.16e-09  1.85e+06    90s
   9  -4.29893441e+11  1.43062837e+12  4.21e+04 3.56e+00  1.02e+06    94s
  10  -9.77006271e+10  6.88017505e+11  9.84e+03 3.22e-01  2.89e+05   100s
  11  -3.20915550e+10  2.84482434e+11  3.44e+03 1.92e-09  1.01e+05   104s
  12  -1.00614749e+10  1.19436000e+11  1.29e+03 2.47e-09  3.79e+04   108s
  13  -7.17197773e+09  1.00446849e+11  1.01e+03 6.96e-08  3.07e+04   112s
  14  -4.21546172e+09  4.18940875e+10  7.19e+02 2.47e-08  1.45e+04   116s
  15  -2.80990997e+09  1.76108176e+10  5.82e+02 9.14e-09  7.66e+03   121s
  16   7.65957333e+07  1.02194384e+10  3.02e+02 1.27e-08  3.74e+03   126s
  17   1.24573892e+09  8.72575107e+09  1.89e+02 1.35e-08  2.58e+03   132s
  18   1.58119006e+09  7.54748354e+09  1.57e+02 1.77e-08  2.03e+03   137s
  19   1.80784548e+09  7.17706347e+09  1.36e+02 1.57e-08  1.79e+03   142s
  20   1.83424006e+09  6.98486579e+09  1.34e+02 1.64e-08  1.73e+03   146s
  21   2.08303512e+09  6.88335268e+09  1.12e+02 1.63e-08  1.55e+03   151s
  22   2.17937797e+09  6.52619377e+09  1.03e+02 1.75e-08  1.40e+03   156s
  23   2.24915822e+09  6.29369930e+09  9.70e+01 1.59e-08  1.30e+03   162s
  24   2.36728199e+09  5.47522199e+09  8.64e+01 1.56e-08  1.02e+03   168s
  25   2.66350346e+09  5.10456938e+09  6.05e+01 1.80e-08  7.72e+02   174s
  26   2.69747028e+09  5.06092096e+09  5.77e+01 1.64e-08  7.43e+02   180s
  27   2.78271378e+09  4.71865449e+09  5.05e+01 1.71e-08  6.10e+02   186s
  28   2.86773914e+09  4.50502329e+09  4.27e+01 1.55e-08  5.06e+02   193s
  29   2.91550047e+09  4.40538365e+09  3.89e+01 1.46e-08  4.57e+02   199s
  30   2.93392909e+09  4.32902477e+09  3.74e+01 1.94e-08  4.25e+02   205s
  31   3.01542224e+09  4.19726168e+09  3.03e+01 1.75e-08  3.51e+02   211s
  32   3.10101119e+09  4.11087848e+09  2.31e+01 1.74e-08  2.90e+02   217s
  33   3.12323067e+09  4.02896500e+09  2.12e+01 2.01e-08  2.59e+02   223s
  34   3.18888967e+09  3.92223420e+09  1.56e+01 1.56e-08  2.04e+02   229s
  35   3.20161125e+09  3.88194428e+09  1.46e+01 1.33e-08  1.88e+02   236s
  36   3.21889068e+09  3.79171452e+09  1.33e+01 2.33e-08  1.56e+02   242s
  37   3.24133769e+09  3.74555758e+09  1.15e+01 1.45e-08  1.36e+02   248s
  38   3.25966253e+09  3.70261605e+09  1.01e+01 2.12e-08  1.17e+02   254s
  39   3.26736495e+09  3.67179667e+09  9.51e+00 1.32e-08  1.06e+02   260s
  40   3.28582402e+09  3.61249715e+09  8.08e+00 1.45e-08  8.35e+01   266s
  41   3.31293814e+09  3.57637397e+09  6.01e+00 1.69e-08  6.51e+01   273s
  42   3.32967047e+09  3.55377990e+09  4.83e+00 1.21e-08  5.39e+01   279s
  43   3.34115695e+09  3.52418501e+09  4.05e+00 1.29e-08  4.28e+01   285s
  44   3.34978339e+09  3.50089755e+09  3.44e+00 1.74e-08  3.44e+01   291s
  45   3.36346486e+09  3.48984858e+09  2.55e+00 1.76e-08  2.82e+01   297s
  46   3.37055596e+09  3.47498483e+09  2.14e+00 1.43e-08  2.29e+01   304s
  47   3.38017656e+09  3.46745832e+09  1.59e+00 9.71e-09  1.89e+01   309s
  48   3.38297222e+09  3.46100266e+09  1.46e+00 1.06e-08  1.68e+01   315s
  49   3.38560215e+09  3.46036093e+09  1.35e+00 1.22e-08  1.61e+01   320s
  50   3.38998751e+09  3.45579214e+09  1.16e+00 1.09e-08  1.41e+01   327s
  51   3.39622831e+09  3.45097942e+09  9.08e-01 1.15e-08  1.16e+01   333s
  52   3.39801435e+09  3.44743755e+09  8.39e-01 1.35e-08  1.05e+01   339s
  53   3.39877912e+09  3.44665919e+09  8.10e-01 1.24e-08  1.01e+01   343s
  54   3.40066796e+09  3.44234698e+09  7.40e-01 1.08e-08  8.74e+00   350s
  55   3.40399525e+09  3.44080749e+09  6.14e-01 1.40e-08  7.71e+00   356s
  56   3.40634515e+09  3.43769021e+09  5.32e-01 1.20e-08  6.53e+00   362s
  57   3.40731709e+09  3.43622765e+09  5.00e-01 1.28e-08  6.00e+00   368s
  58   3.40938855e+09  3.43483756e+09  4.37e-01 1.16e-08  5.27e+00   374s
  59   3.41122280e+09  3.43351828e+09  3.82e-01 2.32e-08  4.61e+00   379s
  60   3.41329120e+09  3.43287759e+09  3.24e-01 1.88e-08  4.06e+00   385s
  61   3.41386607e+09  3.43171906e+09  3.08e-01 1.38e-08  3.68e+00   392s
  62   3.41490143e+09  3.43054344e+09  2.79e-01 1.49e-08  3.22e+00   398s
  63   3.41570235e+09  3.43034940e+09  2.57e-01 1.72e-08  3.01e+00   404s
  64   3.41716099e+09  3.42922629e+09  2.19e-01 2.58e-08  2.47e+00   410s
  65   3.41776223e+09  3.42875903e+09  2.04e-01 2.86e-08  2.25e+00   416s
  66   3.41905815e+09  3.42811380e+09  1.71e-01 2.70e-08  1.85e+00   422s
  67   3.41963824e+09  3.42779153e+09  1.55e-01 2.83e-08  1.66e+00   429s
  68   3.42066200e+09  3.42737648e+09  1.28e-01 2.00e-08  1.37e+00   435s
  69   3.42186404e+09  3.42702483e+09  9.61e-02 1.20e-08  1.05e+00   441s
  70   3.42238062e+09  3.42682814e+09  8.26e-02 2.27e-08  9.07e-01   447s
  71   3.42337219e+09  3.42664029e+09  5.70e-02 2.11e-08  6.69e-01   453s
  72   3.42401538e+09  3.42642471e+09  4.04e-02 2.54e-08  4.94e-01   460s
  73   3.42427016e+09  3.42619811e+09  3.39e-02 1.52e-08  3.94e-01   465s
  74   3.42464201e+09  3.42607985e+09  2.48e-02 1.04e-08  2.94e-01   471s
  75   3.42490833e+09  3.42593775e+09  1.81e-02 2.45e-08  2.11e-01   476s
  76   3.42515537e+09  3.42588995e+09  1.20e-02 1.33e-08  1.51e-01   482s
  77   3.42539200e+09  3.42576752e+09  6.06e-03 1.86e-08  7.72e-02   488s
  78   3.42545997e+09  3.42572184e+09  4.35e-03 1.91e-08  5.38e-02   494s
  79   3.42553230e+09  3.42567690e+09  2.53e-03 1.71e-08  2.96e-02   499s
  80   3.42560932e+09  3.42565514e+09  7.45e-04 1.46e-08  9.43e-03   504s
  81   3.42562168e+09  3.42564808e+09  4.54e-04 1.81e-08  5.42e-03   508s
  82   3.42563529e+09  3.42564594e+09  1.42e-04 1.02e-08  2.21e-03   512s
  83   3.42564010e+09  3.42564303e+09  3.51e-05 1.90e-08  6.13e-04   516s
  84   3.42564129e+09  3.42564215e+09  1.01e-05 1.89e-08  1.80e-04   520s
  85   3.42564165e+09  3.42564187e+09  2.32e-06 2.66e-08  4.64e-05   525s
  86   3.42564176e+09  3.42564179e+09  1.30e-07 1.90e-08  7.00e-06   529s
  87   3.42564177e+09  3.42564177e+09  5.30e-09 2.32e-08  4.70e-07   534s
  88   3.42564177e+09  3.42564177e+09  1.15e-08 1.85e-08  1.95e-09   539s

Barrier solved model in 88 iterations and 539.56 seconds (262.81 work units)
Optimal objective 3.42564177e+09


Root crossover log...

   70306 DPushes remaining with DInf 0.0000000e+00               540s
      51 DPushes remaining with DInf 0.0000000e+00               549s
       0 DPushes remaining with DInf 0.0000000e+00               555s

    2180 PPushes remaining with PInf 5.7740331e-04               555s
       0 PPushes remaining with PInf 0.0000000e+00               555s

  Push phase complete: Pinf 0.0000000e+00, Dinf 5.1615720e+02    555s


Root simplex log...

Iteration    Objective       Primal Inf.    Dual Inf.      Time
   72436    3.4256418e+09   0.000000e+00   5.161572e+02    555s
   72440    3.4256418e+09   0.000000e+00   0.000000e+00    556s
Concurrent spin time: 40.09s

Solved with barrier
   72440    3.4256418e+09   0.000000e+00   0.000000e+00    598s

Root relaxation: objective 3.425642e+09, 72440 iterations, 560.92 seconds (201.92 work units)
Total elapsed time = 602.32s
Total elapsed time = 606.35s

    Nodes    |    Current Node    |     Objective Bounds      |     Work
 Expl Unexpl |  Obj  Depth IntInf | Incumbent    BestBd   Gap | It/Node Time

     0     0 3.4256e+09    0 1190          - 3.4256e+09      -     -  610s
     0     0 3.4256e+09    0 1190          - 3.4256e+09      -     - 1016s
     0     0 3.4256e+09    0 1130          - 3.4256e+09      -     - 1552s
     0     0 3.4254e+09    0 1122          - 3.4254e+09      -     - 3601s
     0     0 3.4254e+09    0 1123          - 3.4254e+09      -     - 4621s
     0     0 3.4254e+09    0 1096          - 3.4254e+09      -     - 4633s
     0     0 3.4254e+09    0 1244          - 3.4254e+09      -     - 5446s
     0     0 3.4254e+09    0 1254          - 3.4254e+09      -     - 6488s
     0     0 3.4254e+09    0 1263          - 3.4254e+09      -     - 6599s
     0     0 3.4254e+09    0 1240          - 3.4254e+09      -     - 7320s
     0     0 3.4254e+09    0 1215          - 3.4254e+09      -     - 8313s
     0     0 3.4254e+09    0 1261          - 3.4254e+09      -     - 8523s
     0     0 3.4254e+09    0 1269          - 3.4254e+09      -     - 9310s
     0     0 3.4254e+09    0 1265          - 3.4254e+09      -     - 10186s

Cutting planes:
  Cover: 35
  Implied bound: 54
  Clique: 1
  MIR: 43
  Flow cover: 14
  RLT: 48
  Relax-and-lift: 59

Explored 1 nodes (280351 simplex iterations) in 10800.30 seconds (7886.56 work units)
Thread count was 16 (of 16 available processors)

Solution count 0

Time limit reached
Best objective -, best bound 3.425371182661e+09, gap -
IIS computation: initial model status unknown, solving to determine model status
Presolve removed 104048 rows and 39613 columns (presolve time = 5s) ...
Presolve removed 110307 rows and 39613 columns (presolve time = 10s) ...
Presolve removed 110505 rows and 39613 columns (presolve time = 15s) ...
Presolve removed 110505 rows and 39613 columns (presolve time = 21s) ...
Presolve removed 110505 rows and 39613 columns (presolve time = 25s) ...
Presolve removed 110505 rows and 39613 columns (presolve time = 30s) ...
Presolve removed 110348 rows and 39641 columns
Presolve time: 32.29s
Presolved: 82763 rows, 2306539 columns, 13356783 nonzeros
Variable types: 3647 continuous, 2302892 integer (2302892 binary)
Deterministic concurrent LP optimizer: primal simplex, dual simplex, and barrier
Showing barrier log only...

Root barrier log...

Elapsed ordering time = 5s
Ordering time: 5.29s

Barrier statistics:
 AA' NZ     : 6.217e+06
 Factor NZ  : 3.483e+07 (roughly 1.3 GB of memory)
 Factor Ops : 1.300e+11 (roughly 1 second per iteration)
 Threads    : 5

                  Objective                Residual
Iter       Primal          Dual         Primal    Dual     Compl     Time
   0  -0.00000000e+00  1.45499169e+06  1.09e+10 0.00e+00  1.28e+04    63s
   1  -0.00000000e+00  1.53025459e+06  2.74e+09 9.20e-03  3.24e+03    65s
   2  -0.00000000e+00  1.02185381e+06  4.41e+07 2.72e-04  5.26e+01    68s
   3  -0.00000000e+00  3.41298124e+05  1.16e+07 2.22e-06  1.44e+01    72s
   4  -0.00000000e+00  1.16887945e+05  5.10e+06 1.18e-06  3.55e+00    77s
   5  -0.00000000e+00  5.80418576e+04  1.54e+06 4.94e-07  6.63e-01    81s
   6  -0.00000000e+00  5.56388149e+04  1.32e+06 6.70e-07  5.53e-01    85s
   7  -0.00000000e+00  4.43079316e+04  5.19e+05 1.04e-06  1.91e-01    89s
   8  -0.00000000e+00  3.28704752e+04  2.18e+05 8.24e-07  6.85e-02    93s
   9  -0.00000000e+00  1.93604811e+04  8.61e+04 5.20e-07  2.07e-02    97s
  10  -0.00000000e+00  5.28769042e+03  2.26e+04 2.32e-07  3.22e-03   102s
  11  -0.00000000e+00  1.07988460e+03  6.99e+03 1.35e-07  5.79e-04   107s
  12  -0.00000000e+00  2.58331470e+02  4.01e+03 1.11e-07  1.70e-04   112s
  13  -0.00000000e+00  1.29147316e+02  2.21e+03 8.80e-08  7.91e-05   116s
  14  -0.00000000e+00  1.23422866e+02  1.33e+03 8.70e-08  5.69e-05   119s
  15  -0.00000000e+00  7.66578767e+01  8.88e+02 7.47e-08  3.43e-05   123s
  16  -0.00000000e+00  2.80379395e+01  2.23e+02 4.92e-08  9.90e-06   126s
  17  -0.00000000e+00  2.46043645e+01  1.24e+02 4.49e-08  7.45e-06   130s
  18  -0.00000000e+00  1.64898431e+01  8.13e+01 3.35e-08  4.94e-06   135s
  19  -0.00000000e+00  1.33869284e+01  6.28e+01 2.82e-08  3.97e-06   140s
  20  -0.00000000e+00  1.14626349e+01  5.59e+01 2.39e-08  3.45e-06   145s
  21  -0.00000000e+00  9.80315528e+00  3.64e+01 1.84e-08  2.76e-06   151s
  22  -0.00000000e+00  7.95638521e+00  2.55e+01 1.53e-08  2.19e-06   156s
  23  -0.00000000e+00  6.52844268e+00  2.23e+01 1.22e-08  1.83e-06   161s
  24  -0.00000000e+00  4.90453087e+00  1.99e+01 1.90e-08  1.47e-06   166s
  25  -0.00000000e+00  4.02693970e+00  1.58e+01 2.97e-08  1.21e-06   171s
  26  -0.00000000e+00  3.37437465e+00  1.19e+01 4.02e-08  9.93e-07   176s
  27  -0.00000000e+00  2.57549661e+00  9.39e+00 4.43e-08  7.58e-07   181s
  28  -0.00000000e+00  1.65482884e+00  5.76e+00 4.47e-08  4.72e-07   186s
  29  -0.00000000e+00  6.53853784e-01  2.29e+00 3.48e-08  1.89e-07   191s
  30  -0.00000000e+00  2.66921655e-01  1.02e+00 2.22e-08  8.03e-08   196s
  31  -0.00000000e+00  6.73234865e-02  1.22e-01 8.41e-09  2.13e-08   200s
  32  -0.00000000e+00  2.28176666e-02  5.98e-03 3.31e-09  7.67e-09   204s
  33  -0.00000000e+00  1.08957357e-04  1.45e-05 1.99e-11  3.96e-11   208s
  34  -0.00000000e+00  9.72919189e-10  6.10e-10 5.05e-16  3.53e-16   211s

Barrier solved model in 34 iterations and 211.21 seconds (169.60 work units)
Optimal objective -0.00000000e+00

  Building initial crossover basis                               223s
  Building initial crossover basis                               226s
  Building initial crossover basis                               231s
  Building initial crossover basis                               238s
  Building initial crossover basis                               242s
  Building initial crossover basis                               247s
  Building initial crossover basis                               253s
  Building initial crossover basis                               257s
  Building initial crossover basis                               261s
  Building initial crossover basis                               267s
  Building initial crossover basis                               271s
  Building initial crossover basis                               275s
  Building initial crossover basis                               283s
  Building initial crossover basis                               287s
  Building initial crossover basis                               291s
  Building initial crossover basis                               298s
  Building initial crossover basis                               302s
  Building initial crossover basis                               306s
  Building initial crossover basis                               310s
  Building initial crossover basis                               317s
  Building initial crossover basis                               321s
  Building initial crossover basis                               325s
  Building initial crossover basis                               333s
  Building initial crossover basis                               337s
  Building initial crossover basis                               341s
  Building initial crossover basis                               345s
  Building initial crossover basis                               353s
  Building initial crossover basis                               357s
  Building initial crossover basis                               361s
  Building initial crossover basis                               368s
  Building initial crossover basis                               372s
  Building initial crossover basis                               376s
  Building initial crossover basis                               384s
  Building initial crossover basis                               388s
  Building initial crossover basis                               392s
  Building initial crossover basis                               395s
  Building initial crossover basis                               403s
  Building initial crossover basis                               407s
  Building initial crossover basis                               411s
  Building initial crossover basis                               418s
  Building initial crossover basis                               422s
  Building initial crossover basis                               426s
  Building initial crossover basis                               433s
  Building initial crossover basis                               437s
  Building initial crossover basis                               441s
  Building initial crossover basis                               449s
  Building initial crossover basis                               453s
  Building initial crossover basis                               456s
  Building initial crossover basis                               464s
  Building initial crossover basis                               468s
  Building initial crossover basis                               472s
  Building initial crossover basis                               476s
  Building initial crossover basis                               483s
  Building initial crossover basis                               487s
  Building initial crossover basis                               491s
  Building initial crossover basis                               499s
  Building initial crossover basis                               503s
  Building initial crossover basis                               507s
  Building initial crossover basis                               511s
  Building initial crossover basis                               518s
  Building initial crossover basis                               522s
  Building initial crossover basis                               526s
  Building initial crossover basis                               530s
  Building initial crossover basis                               538s
  Building initial crossover basis                               542s
  Building initial crossover basis                               545s
  Building initial crossover basis                               553s
  Building initial crossover basis                               555s
  Building initial crossover basis                               560s
  Building initial crossover basis                               565s
  Building initial crossover basis                               570s
  Building initial crossover basis                               575s
  Building initial crossover basis                               580s
  Building initial crossover basis                               586s
  Building initial crossover basis                               592s
  Building initial crossover basis                               598s
  Building initial crossover basis                               601s
  Building initial crossover basis                               607s
  Building initial crossover basis                               610s
  Building initial crossover basis                               616s
  Building initial crossover basis                               623s
  Building initial crossover basis                               626s
  Building initial crossover basis                               633s
  Building initial crossover basis                               636s
  Building initial crossover basis                               643s
  Building initial crossover basis                               646s
  Building initial crossover basis                               653s

Root crossover log...

   70783 DPushes remaining with DInf 4.8407232e+01               654s
       0 DPushes remaining with DInf 0.0000000e+00               655s

     708 PPushes remaining with PInf 3.1966840e-03               655s
       0 PPushes remaining with PInf 0.0000000e+00               655s

  Push phase complete: Pinf 0.0000000e+00, Dinf 0.0000000e+00    655s


Root simplex log...

Iteration    Objective       Primal Inf.    Dual Inf.      Time
    4228   -0.0000000e+00   0.000000e+00   0.000000e+00    655s
Concurrent spin time: 0.01s

Solved with barrier
    4228   -0.0000000e+00   0.000000e+00   0.000000e+00    656s

Root relaxation: objective -0.000000e+00, 4228 iterations, 613.63 seconds (317.06 work units)

    Nodes    |    Current Node    |     Objective Bounds      |     Work
 Expl Unexpl |  Obj  Depth IntInf | Incumbent    BestBd   Gap | It/Node Time

     0     0   -0.00000    0 1408          -   -0.00000      -     - 3977s
     0     0          -    0               -   -0.00000      -     - 10800s

Cutting planes:
  Cover: 3
  Implied bound: 153
  Clique: 1
  MIR: 108
  Flow cover: 11
  GUB cover: 1
  RLT: 256
  Relax-and-lift: 2

Explored 1 nodes (161875 simplex iterations) in 10800.13 seconds (12120.31 work units)
Thread count was 16 (of 16 available processors)

Solution count 0

Time limit reached
Best objective -, best bound -0.000000000000e+00, gap -
IIS runtime: 10800.40 seconds (12120.31 work units)

Gurobi 10.0.1 (win64) logging started Sun May 21 12:47:26 2023

Set parameter LogFile to value "logFiles/N-1L-D/N-1L-14U-27F-23V-240D-basic-heuristic.log"
Gurobi Optimizer version 10.0.1 build v10.0.1rc0 (win64)

CPU model: Intel(R) Core(TM) i7-10700 CPU @ 2.90GHz, instruction set [SSE2|AVX|AVX2]
Thread count: 8 physical cores, 16 logical processors, using up to 16 threads

Optimize a model with 193111 rows, 2346180 columns and 17392814 nonzeros
Model fingerprint: 0xe9e5fdb9
Variable types: 3505 continuous, 2342675 integer (2342675 binary)
Coefficient statistics:
  Matrix range     [1e+00, 2e+05]
  Objective range  [4e+01, 3e+07]
  Bounds range     [1e+00, 1e+00]
  RHS range        [1e+00, 5e+06]
Presolve removed 104048 rows and 39612 columns (presolve time = 5s) ...
Presolve removed 110307 rows and 39612 columns (presolve time = 10s) ...
Presolve removed 110505 rows and 39612 columns (presolve time = 15s) ...
Presolve removed 110505 rows and 39612 columns (presolve time = 20s) ...
Presolve removed 110505 rows and 39612 columns (presolve time = 25s) ...
Presolve removed 110505 rows and 39804 columns (presolve time = 31s) ...
Presolve removed 110348 rows and 39640 columns
Presolve time: 31.27s
Presolved: 82763 rows, 2306540 columns, 13356784 nonzeros
Variable types: 3647 continuous, 2302893 integer (2302893 binary)
Deterministic concurrent LP optimizer: primal simplex, dual simplex, and barrier
Showing barrier log only...

Root barrier log...

Elapsed ordering time = 5s
Ordering time: 6.20s

Barrier statistics:
 AA' NZ     : 6.217e+06
 Factor NZ  : 3.483e+07 (roughly 1.3 GB of memory)
 Factor Ops : 1.300e+11 (roughly 1 second per iteration)
 Threads    : 5

                  Objective                Residual
Iter       Primal          Dual         Primal    Dual     Compl     Time
   0  -1.12503889e+17  2.10361792e+13  1.09e+10 5.62e+05  1.86e+11    59s
   1  -3.10249661e+16  2.15280571e+13  3.00e+09 5.05e+05  5.16e+10    62s
   2  -6.39689377e+15  1.59794154e+13  6.24e+08 6.14e+04  1.08e+10    66s
   3  -4.26040201e+14  1.03410159e+13  4.16e+07 1.28e+03  7.23e+08    70s
   4  -5.75965449e+13  4.74658973e+12  5.62e+06 4.05e+00  1.02e+08    75s
   5  -7.29476945e+12  2.67674988e+12  7.10e+05 1.40e-09  1.40e+07    79s
   6  -3.49492787e+12  2.50381557e+12  3.40e+05 8.59e+00  6.95e+06    83s
   7  -2.00734532e+12  2.01571647e+12  1.95e+05 1.40e-09  4.01e+06    86s
   8  -8.67431146e+11  1.66631711e+12  8.46e+04 1.40e-09  1.85e+06    89s
   9  -4.29889511e+11  1.43061482e+12  4.21e+04 3.56e+00  1.02e+06    94s
  10  -9.73950839e+10  6.87933574e+11  9.81e+03 3.22e-01  2.88e+05    99s
  11  -3.19214646e+10  2.84493802e+11  3.42e+03 1.92e-09  1.01e+05   104s
  12  -1.00583855e+10  1.19981311e+11  1.29e+03 2.18e-09  3.80e+04   108s
  13  -7.10510679e+09  8.78097899e+10  1.00e+03 9.76e-08  2.77e+04   112s
  14  -4.31413991e+09  3.92278848e+10  7.29e+02 3.83e-08  1.40e+04   116s
  15  -2.90684570e+09  1.72321908e+10  5.92e+02 1.55e-08  7.67e+03   121s
  16  -1.26673432e+07  1.00198480e+10  3.10e+02 8.70e-09  3.86e+03   126s
  17   1.10178668e+09  8.75438541e+09  2.03e+02 6.47e-09  2.73e+03   133s
  18   1.47294568e+09  7.77702859e+09  1.68e+02 9.08e-09  2.25e+03   138s
  19   1.92059365e+09  7.29744470e+09  1.26e+02 1.74e-08  1.80e+03   143s
  20   1.98700238e+09  7.10907195e+09  1.20e+02 5.94e-09  1.72e+03   147s
  21   2.01559062e+09  6.94026761e+09  1.18e+02 9.45e-09  1.66e+03   151s
  22   2.09240081e+09  6.66907371e+09  1.12e+02 1.28e-08  1.54e+03   157s
  23   2.12100932e+09  6.38501956e+09  1.09e+02 2.07e-08  1.46e+03   162s
  24   2.34361157e+09  5.78557315e+09  8.91e+01 8.99e-09  1.14e+03   169s
  25   2.68082120e+09  5.29926808e+09  5.88e+01 7.45e-09  8.25e+02   175s
  26   2.77292756e+09  5.10042552e+09  5.12e+01 7.14e-09  7.22e+02   182s
  27   2.85437075e+09  4.66817640e+09  4.40e+01 1.80e-08  5.60e+02   188s
  28   2.91921393e+09  4.60844217e+09  3.83e+01 1.43e-08  5.10e+02   194s
  29   2.96449410e+09  4.49575664e+09  3.47e+01 1.04e-08  4.59e+02   201s
  30   2.98501148e+09  4.44842567e+09  3.29e+01 1.26e-08  4.37e+02   207s
  31   3.00048830e+09  4.32573073e+09  3.17e+01 1.90e-08  3.97e+02   213s
  32   3.03716044e+09  4.24313853e+09  2.86e+01 1.64e-08  3.57e+02   220s
  33   3.07202281e+09  4.14224204e+09  2.56e+01 1.10e-08  3.17e+02   226s
  34   3.08194700e+09  4.12417992e+09  2.49e+01 1.13e-08  3.07e+02   233s
  35   3.15652068e+09  4.01205316e+09  1.85e+01 1.24e-08  2.43e+02   239s
  36   3.22457927e+09  3.89433876e+09  1.29e+01 1.64e-08  1.83e+02   245s
  37   3.25291763e+09  3.82686716e+09  1.07e+01 1.10e-08  1.53e+02   252s
  38   3.27033207e+09  3.73658894e+09  9.29e+00 1.46e-08  1.23e+02   258s
  39   3.29375081e+09  3.62550576e+09  7.46e+00 1.55e-08  8.49e+01   265s
  40   3.30432194e+09  3.59785042e+09  6.65e+00 1.47e-08  7.39e+01   270s
  41   3.32606180e+09  3.56230244e+09  5.03e+00 1.16e-08  5.75e+01   276s
  42   3.33602161e+09  3.54860011e+09  4.35e+00 2.01e-08  5.09e+01   283s
  43   3.34384149e+09  3.51786815e+09  3.84e+00 1.63e-08  4.08e+01   289s
  44   3.35223619e+09  3.49596906e+09  3.28e+00 1.61e-08  3.28e+01   295s
  45   3.36141917e+09  3.47820499e+09  2.70e+00 1.53e-08  2.60e+01   302s
  46   3.36644623e+09  3.47262423e+09  2.41e+00 1.25e-08  2.34e+01   307s
  47   3.37241581e+09  3.46347164e+09  2.10e+00 1.23e-08  1.98e+01   314s
  48   3.37746633e+09  3.46086849e+09  1.84e+00 2.11e-08  1.80e+01   320s
  49   3.38001337e+09  3.46055529e+09  1.72e+00 2.22e-08  1.74e+01   327s
  50   3.38454231e+09  3.45408504e+09  1.52e+00 2.15e-08  1.49e+01   333s
  51   3.38779148e+09  3.44794529e+09  1.38e+00 1.47e-08  1.27e+01   339s
  52   3.39106090e+09  3.44714159e+09  1.24e+00 3.02e-08  1.18e+01   345s
  53   3.39475815e+09  3.44517412e+09  1.08e+00 2.37e-08  1.06e+01   351s
  54   3.39568430e+09  3.44262297e+09  1.05e+00 3.22e-08  9.81e+00   358s
  55   3.39883422e+09  3.44138812e+09  9.15e-01 3.00e-08  8.88e+00   363s
  56   3.40122359e+09  3.43952897e+09  8.15e-01 3.17e-08  7.96e+00   370s
  57   3.40333374e+09  3.43730615e+09  7.32e-01 2.57e-08  7.02e+00   376s
  58   3.40478307e+09  3.43527003e+09  6.75e-01 3.75e-08  6.26e+00   382s
  59   3.40689569e+09  3.43484119e+09  5.93e-01 3.90e-08  5.74e+00   388s
  60   3.40992684e+09  3.43372168e+09  4.84e-01 2.76e-08  4.89e+00   394s
  61   3.41211166e+09  3.43265009e+09  4.10e-01 3.52e-08  4.22e+00   401s
  62   3.41396310e+09  3.43136774e+09  3.48e-01 1.93e-08  3.56e+00   407s
  63   3.41455965e+09  3.43095766e+09  3.28e-01 1.82e-08  3.35e+00   413s
  64   3.41592633e+09  3.43070216e+09  2.85e-01 2.45e-08  3.03e+00   420s
  65   3.41745807e+09  3.42986560e+09  2.37e-01 3.34e-08  2.54e+00   426s
  66   3.41815100e+09  3.42918069e+09  2.17e-01 1.69e-08  2.25e+00   433s
  67   3.41920460e+09  3.42856464e+09  1.86e-01 2.79e-08  1.91e+00   439s
  68   3.42013139e+09  3.42812939e+09  1.58e-01 2.50e-08  1.63e+00   445s
  69   3.42119818e+09  3.42778097e+09  1.26e-01 2.38e-08  1.34e+00   452s
  70   3.42177618e+09  3.42732952e+09  1.09e-01 1.93e-08  1.13e+00   458s
  71   3.42224523e+09  3.42717484e+09  9.60e-02 1.75e-08  1.00e+00   464s
  72   3.42288461e+09  3.42681638e+09  7.77e-02 2.04e-08  7.99e-01   470s
  73   3.42378537e+09  3.42657144e+09  5.17e-02 1.65e-08  5.68e-01   477s
  74   3.42404950e+09  3.42640531e+09  4.39e-02 2.25e-08  4.80e-01   483s
  75   3.42465139e+09  3.42609544e+09  2.70e-02 3.18e-08  2.94e-01   489s
  76   3.42495469e+09  3.42595281e+09  1.86e-02 1.98e-08  2.04e-01   495s
  77   3.42531022e+09  3.42579728e+09  8.83e-03 2.46e-08  9.96e-02   502s
  78   3.42542908e+09  3.42571154e+09  5.53e-03 2.49e-08  5.75e-02   508s
  79   3.42556964e+09  3.42568922e+09  1.80e-03 2.73e-08  2.47e-02   513s
  80   3.42560272e+09  3.42566832e+09  9.73e-04 2.05e-08  1.36e-02   518s
  81   3.42561561e+09  3.42565764e+09  6.43e-04 3.31e-08  8.68e-03   522s
  82   3.42562636e+09  3.42565129e+09  3.73e-04 2.74e-08  5.16e-03   526s
  83   3.42563074e+09  3.42565076e+09  2.67e-04 3.43e-08  4.16e-03   530s
  84   3.42563640e+09  3.42564846e+09  1.26e-04 3.04e-08  2.53e-03   534s
  85   3.42564035e+09  3.42564312e+09  3.11e-05 2.63e-08  5.79e-04   538s
  86   3.42564122e+09  3.42564224e+09  1.20e-05 2.22e-08  2.13e-04   543s
  87   3.42564152e+09  3.42564186e+09  5.59e-06 2.71e-08  7.23e-05   548s
  88   3.42564171e+09  3.42564179e+09  1.27e-06 3.27e-08  1.70e-05   552s
  89   3.42564176e+09  3.42564178e+09  1.31e-07 2.27e-08  2.65e-06   557s
  90   3.42564177e+09  3.42564177e+09  2.84e-08 2.30e-08  1.80e-07   563s
  91   3.42564177e+09  3.42564177e+09  1.11e-08 2.28e-08  1.68e-10   568s

Barrier solved model in 91 iterations and 568.29 seconds (268.92 work units)
Optimal objective 3.42564177e+09


Root crossover log...

   70350 DPushes remaining with DInf 0.0000000e+00               569s
    1323 DPushes remaining with DInf 0.0000000e+00               570s
      58 DPushes remaining with DInf 0.0000000e+00               579s
       0 DPushes remaining with DInf 0.0000000e+00               585s

    2167 PPushes remaining with PInf 0.0000000e+00               585s
       0 PPushes remaining with PInf 0.0000000e+00               586s

  Push phase complete: Pinf 0.0000000e+00, Dinf 7.9795415e-01    586s


Root simplex log...

Iteration    Objective       Primal Inf.    Dual Inf.      Time
   72467    3.4256418e+09   0.000000e+00   7.979531e-01    586s
   72470    3.4256418e+09   0.000000e+00   0.000000e+00    587s
Concurrent spin time: 29.31s

Solved with barrier
   72470    3.4256418e+09   0.000000e+00   0.000000e+00    618s

Root relaxation: objective 3.425642e+09, 72470 iterations, 580.81 seconds (208.45 work units)
Total elapsed time = 622.68s
Total elapsed time = 625.19s
Total elapsed time = 632.21s

    Nodes    |    Current Node    |     Objective Bounds      |     Work
 Expl Unexpl |  Obj  Depth IntInf | Incumbent    BestBd   Gap | It/Node Time

     0     0 3.4256e+09    0 1198          - 3.4256e+09      -     -  638s
     0     0 3.4256e+09    0 1198          - 3.4256e+09      -     - 1062s
     0     0 3.4256e+09    0 1158          - 3.4256e+09      -     - 1599s
     0     0          -    0               - 3.4256e+09      -     - 3288s

Cutting planes:
  Cover: 4
  Implied bound: 42
  Clique: 4
  MIR: 29
  Flow cover: 23
  Zero half: 1
  RLT: 109
  Relax-and-lift: 1

Explored 1 nodes (238767 simplex iterations) in 3289.05 seconds (2288.75 work units)
Thread count was 16 (of 16 available processors)

Solution count 0

Solve interrupted
Best objective -, best bound 3.425632227221e+09, gap -
IIS computation: initial model status unknown, solving to determine model status

Explored 0 nodes (0 simplex iterations) in 1.68 seconds (0.00 work units)
Thread count was 1 (of 16 available processors)

Solution count 0

Solve interrupted
Best objective -, best bound -, gap -
IIS runtime: 1.72 seconds (0.00 work units)
